22 3
5 4 3
0 0 0 0 20 2 3 4 5 6 7 8 9 10 11 12 13 14 15 16 17 18 19 20 21
5 0 2 1 4 22 11 20 12
2 1 2 0 2 22 4
2 0 2 0 2 22 13
1 1 0 0 1 22
4 0 1 1 1 22
3 0 0 1 2 22 17
5 2 2 1 1 22
3 1 0 1 3 22 12 12
2 0 1 0 3 22 21 12
5 1 2 0 1 22
1 0 2 1 2 22 19
4 0 0 1 1 22
4 2 0 0 2 22 18
3 1 1 0 2 22 16
1 0 1 1 3 22 19 20
4 0 0 1 1 22
1 0 1 1 1 22
1 2 0 0 1 22
1 2 1 0 1 22
1 0 1 1 1 22
0 0 0 0 0
